
ASes= { 1, 2, 3, 4, 5, 6, 7, 8, 9, 10 } ;


Objects= { 1, 2, 3, 4, 5, 6, 7, 8, 9, 10 } ;


QualityLevels= { 0, 1, 2, 3, 4, 5 } ;

Arcs = { <1,2,490000>, <2,1,490000>,<2,3,490000>, <3,2,490000>,<2,4,490000>, <4,2,490000>,<4,5,490000>, <5,4,490000>,<2,6,490000>, <6,2,490000>,<3,7,490000>, <7,3,490000>,<6,8,490000>, <8,6,490000>,<3,9,490000>, <9,3,490000>,<2,10,490000>, <10,2,490000> }; 


RatePerQuality= [ 0  300  700  1500  2500  3500 ] ;


CacheSpacePerQuality= [ 10000  11.25  26.25  56.25  93.75  131.25 ] ;


UtilityPerQuality= [ 0  0.2  0.4  0.6  0.8  1 ] ;


ObjectsPublishedByProducers=[ [ 1  0  0  0  0  0  0  0  0  0 ]  [ 1  0  0  0  0  0  0  0  0  0 ]  [ 1  0  0  0  0  0  0  0  0  0 ]  [ 1  0  0  0  0  0  0  0  0  0 ]  [ 1  0  0  0  0  0  0  0  0  0 ]  [ 1  0  0  0  0  0  0  0  0  0 ]  [ 1  0  0  0  0  0  0  0  0  0 ]  [ 1  0  0  0  0  0  0  0  0  0 ]  [ 1  0  0  0  0  0  0  0  0  0 ]  [ 1  0  0  0  0  0  0  0  0  0 ] ];

ObjRequests = {  <1,1,283>, <2,1,306>, <3,1,230>, <4,1,157>, <5,1,455>, <6,1,501>, <7,1,56>, <8,1,134>, <9,1,69>, <10,1,96>, <1,5,397>, <2,5,343>, <3,5,437>, <4,5,322>, <5,5,137>, <6,5,6>, <8,5,160>, <9,5,262>, <10,5,90>, <1,7,3683>, <2,7,39>, <3,7,287>, <4,7,267>, <5,7,61>, <6,7,230>, <7,7,287>, <8,7,157>, <9,7,160>, <10,7,228>, <1,8,512>, <2,8,2134>, <3,8,609>, <4,8,36>, <5,8,322>, <6,8,79>, <7,8,198>, <8,8,85>, <9,8,36>, <10,8,28>, <1,9,681>, <2,9,10>, <3,9,333>, <4,9,596>, <5,9,115>, <6,9,82>, <7,9,261>, <8,9,180>, <9,9,56>, <10,9,139> };

MaxCacheStorageAtSingleAS= [ 13.125  13.125  13.125  13.125  13.125  13.125  13.125  13.125  13.125  13.125 ] ;

MaxCacheStorage = 131.25 ;
SolutionGap = 0 ;
